p cnf 310 933
e 1 2 3 4 5 6 7 8 9 10 11 12 13 14 15 16 17 18 0
a 19 20 21 22 23 24 25 26 27 0
e 28 29 30 31 32 33 34 35 36 0
a 37 38 39 40 41 42 43 44 45 0
e 46 47 48 49 50 51 52 53 54 0
a 55 56 57 58 59 60 61 62 63 0
e 64 65 66 67 68 69 70 71 72 0
a 73 74 75 76 77 78 79 80 81 0
e 82 83 84 85 86 87 88 89 90 109 239 141 105 180 210 136 175 281 266 193 274 300 108 114 130 137 144 296 171 91 260 173 221 277 225 252 262 174 192 291 293 135 150 265 94 164 199 244 285 309 119 155 249 271 232 117 159 219 278 132 212 290 302 102 146 166 101 142 128 181 140 151 215 104 116 283 122 233 243 169 236 273 298 148 149 176 217 228 301 179 183 190 259 194 208 292 97 139 147 201 129 294 289 113 189 224 246 276 188 202 267 111 157 223 227 240 112 156 185 269 182 203 275 103 121 167 286 288 295 92 126 165 251 100 152 209 229 134 191 254 272 303 216 238 245 307 242 297 98 172 200 230 123 211 299 127 268 235 168 178 207 231 308 95 131 110 138 198 205 124 133 153 99 214 234 93 96 253 270 107 154 222 255 257 264 204 247 250 305 310 120 195 248 306 125 145 279 106 118 226 256 186 282 158 161 163 177 206 261 115 143 213 241 263 237 258 287 304 184 187 220 162 284 218 196 170 197 280 160 0
91 0
1 -2 0
2 -3 0
3 -4 0
4 -5 0
5 -6 0
6 -7 0
7 -8 0
8 -9 0
3 -2 0
5 -4 0
7 -6 0
9 -8 0
92 -10 0
10 -92 0
93 -92 0
93 -11 0
92 11 -93 0
94 -92 -11 0
11 -94 0
92 -94 0
95 -93 0
95 -12 0
93 12 -95 0
96 -94 0
96 -93 -12 0
94 12 -96 0
93 -96 0
97 -95 0
97 -13 0
95 13 -97 0
98 -96 0
98 -95 -13 0
96 13 -98 0
95 -98 0
99 -97 0
99 -14 0
97 14 -99 0
100 -98 0
100 -97 -14 0
98 14 -100 0
97 -100 0
101 -99 0
101 -15 0
99 15 -101 0
102 -100 0
102 -99 -15 0
100 15 -102 0
99 -102 0
103 -101 0
103 -16 0
101 16 -103 0
104 -102 0
104 -101 -16 0
102 16 -104 0
101 -104 0
105 -103 0
105 -17 0
103 17 -105 0
106 -104 0
106 -103 -17 0
104 17 -106 0
103 -106 0
107 -105 0
107 -18 0
105 18 -107 0
108 -106 0
108 -105 -18 0
106 18 -108 0
105 -108 0
107 -1 -109 0
-1 -109 -108 0
110 -28 0
28 -110 0
111 -110 0
111 -29 0
110 29 -111 0
112 -110 -29 0
29 -112 0
110 -112 0
113 -111 0
113 -30 0
111 30 -113 0
114 -112 0
114 -111 -30 0
112 30 -114 0
111 -114 0
115 -113 0
115 -31 0
113 31 -115 0
116 -114 0
116 -113 -31 0
114 31 -116 0
113 -116 0
117 -115 0
117 -32 0
115 32 -117 0
118 -116 0
118 -115 -32 0
116 32 -118 0
115 -118 0
119 -117 0
119 -33 0
117 33 -119 0
120 -118 0
120 -117 -33 0
118 33 -120 0
117 -120 0
121 -119 0
121 -34 0
119 34 -121 0
122 -120 0
122 -119 -34 0
120 34 -122 0
119 -122 0
123 -121 0
123 -35 0
121 35 -123 0
124 -122 0
124 -121 -35 0
122 35 -124 0
121 -124 0
125 -123 0
125 -36 0
123 36 -125 0
126 -124 0
126 -123 -36 0
124 36 -126 0
123 -126 0
125 -3 -109 0
-3 -109 -126 0
127 -46 0
46 -127 0
128 -127 0
128 -47 0
127 47 -128 0
129 -127 -47 0
47 -129 0
127 -129 0
130 -128 0
130 -48 0
128 48 -130 0
131 -129 0
131 -128 -48 0
129 48 -131 0
128 -131 0
132 -130 0
132 -49 0
130 49 -132 0
133 -131 0
133 -130 -49 0
131 49 -133 0
130 -133 0
134 -132 0
134 -50 0
132 50 -134 0
135 -133 0
135 -132 -50 0
133 50 -135 0
132 -135 0
136 -134 0
136 -51 0
134 51 -136 0
137 -135 0
137 -134 -51 0
135 51 -137 0
134 -137 0
138 -136 0
138 -52 0
136 52 -138 0
139 -137 0
139 -136 -52 0
137 52 -139 0
136 -139 0
140 -138 0
140 -53 0
138 53 -140 0
141 -139 0
141 -138 -53 0
139 53 -141 0
138 -141 0
142 -140 0
142 -54 0
140 54 -142 0
143 -141 0
143 -140 -54 0
141 54 -143 0
140 -143 0
142 -5 -109 0
-5 -109 -143 0
144 -64 0
64 -144 0
145 -144 0
145 -65 0
144 65 -145 0
146 -144 -65 0
65 -146 0
144 -146 0
147 -145 0
147 -66 0
145 66 -147 0
148 -146 0
148 -145 -66 0
146 66 -148 0
145 -148 0
149 -147 0
149 -67 0
147 67 -149 0
150 -148 0
150 -147 -67 0
148 67 -150 0
147 -150 0
151 -149 0
151 -68 0
149 68 -151 0
152 -150 0
152 -149 -68 0
150 68 -152 0
149 -152 0
153 -151 0
153 -69 0
151 69 -153 0
154 -152 0
154 -151 -69 0
152 69 -154 0
151 -154 0
155 -153 0
155 -70 0
153 70 -155 0
156 -154 0
156 -153 -70 0
154 70 -156 0
153 -156 0
157 -155 0
157 -71 0
155 71 -157 0
158 -156 0
158 -155 -71 0
156 71 -158 0
155 -158 0
159 -157 0
159 -72 0
157 72 -159 0
160 -158 0
160 -157 -72 0
158 72 -160 0
157 -160 0
159 -7 -109 0
-7 -109 -160 0
161 -82 0
82 -161 0
162 -161 0
162 -83 0
161 83 -162 0
163 -161 -83 0
83 -163 0
161 -163 0
164 -162 0
164 -84 0
162 84 -164 0
165 -163 0
165 -162 -84 0
163 84 -165 0
162 -165 0
166 -164 0
166 -85 0
164 85 -166 0
167 -165 0
167 -164 -85 0
165 85 -167 0
164 -167 0
168 -166 0
168 -86 0
166 86 -168 0
169 -167 0
169 -166 -86 0
167 86 -169 0
166 -169 0
170 -168 0
170 -87 0
168 87 -170 0
171 -169 0
171 -168 -87 0
169 87 -171 0
168 -171 0
172 -170 0
172 -88 0
170 88 -172 0
173 -171 0
173 -170 -88 0
171 88 -173 0
170 -173 0
174 -172 0
174 -89 0
172 89 -174 0
175 -173 0
175 -172 -89 0
173 89 -175 0
172 -175 0
176 -174 0
176 -90 0
174 90 -176 0
177 -175 0
177 -174 -90 0
175 90 -177 0
174 -177 0
176 -9 -109 0
-9 -109 -177 0
-10 -28 0
-10 -46 0
-10 -64 0
-10 -82 0
-28 -46 0
-28 -64 0
-28 -82 0
-46 -64 0
-46 -82 0
-64 -82 0
-11 -29 0
-11 -47 0
-11 -65 0
-11 -83 0
-29 -47 0
-29 -65 0
-29 -83 0
-47 -65 0
-47 -83 0
-65 -83 0
-12 -30 0
-12 -48 0
-12 -66 0
-12 -84 0
-30 -48 0
-30 -66 0
-30 -84 0
-48 -66 0
-48 -84 0
-66 -84 0
-13 -31 0
-13 -49 0
-13 -67 0
-13 -85 0
-31 -49 0
-31 -67 0
-31 -85 0
-49 -67 0
-49 -85 0
-67 -85 0
-14 -32 0
-14 -50 0
-14 -68 0
-14 -86 0
-32 -50 0
-32 -68 0
-32 -86 0
-50 -68 0
-50 -86 0
-68 -86 0
-15 -33 0
-15 -51 0
-15 -69 0
-15 -87 0
-33 -51 0
-33 -69 0
-33 -87 0
-51 -69 0
-51 -87 0
-69 -87 0
-16 -34 0
-16 -52 0
-16 -70 0
-16 -88 0
-34 -52 0
-34 -70 0
-34 -88 0
-52 -70 0
-52 -88 0
-70 -88 0
-17 -35 0
-17 -53 0
-17 -71 0
-17 -89 0
-35 -53 0
-35 -71 0
-35 -89 0
-53 -71 0
-53 -89 0
-71 -89 0
-18 -36 0
-18 -54 0
-18 -72 0
-18 -90 0
-36 -54 0
-36 -72 0
-36 -90 0
-54 -72 0
-54 -90 0
-72 -90 0
19 -178 0
178 20 -179 0
20 -180 0
178 -180 0
179 21 -181 0
180 21 -182 0
179 -182 0
181 22 -183 0
182 22 -184 0
181 -184 0
183 23 -185 0
184 23 -186 0
183 -186 0
185 24 -187 0
186 24 -188 0
185 -188 0
187 25 -189 0
188 25 -190 0
187 -190 0
189 26 -191 0
190 26 -192 0
189 -192 0
191 27 -193 0
192 27 -194 0
191 -194 0
2 -194 0
37 -195 0
195 38 -196 0
38 -197 0
195 -197 0
196 39 -198 0
197 39 -199 0
196 -199 0
198 40 -200 0
199 40 -201 0
198 -201 0
200 41 -202 0
201 41 -203 0
200 -203 0
202 42 -204 0
203 42 -205 0
202 -205 0
204 43 -206 0
205 43 -207 0
204 -207 0
206 44 -208 0
207 44 -209 0
206 -209 0
208 45 -210 0
209 45 -211 0
208 -211 0
4 -211 0
55 -212 0
212 56 -213 0
56 -214 0
212 -214 0
213 57 -215 0
214 57 -216 0
213 -216 0
215 58 -217 0
216 58 -218 0
215 -218 0
217 59 -219 0
218 59 -220 0
217 -220 0
219 60 -221 0
220 60 -222 0
219 -222 0
221 61 -223 0
222 61 -224 0
221 -224 0
223 62 -225 0
224 62 -226 0
223 -226 0
225 63 -227 0
226 63 -228 0
225 -228 0
6 -228 0
73 -229 0
229 74 -230 0
74 -231 0
229 -231 0
230 75 -232 0
231 75 -233 0
230 -233 0
232 76 -234 0
233 76 -235 0
232 -235 0
234 77 -236 0
235 77 -237 0
234 -237 0
236 78 -238 0
237 78 -239 0
236 -239 0
238 79 -240 0
239 79 -241 0
238 -241 0
240 80 -242 0
241 80 -243 0
240 -243 0
242 81 -244 0
243 81 -245 0
242 -245 0
8 -245 0
246 -1 -10 0
247 -1 -11 0
248 -1 -12 0
249 -1 -13 0
250 -1 -14 0
251 -1 -15 0
252 -1 -16 0
253 -1 -17 0
254 -1 -18 0
246 -3 -28 0
247 -3 -29 0
248 -3 -30 0
249 -3 -31 0
250 -3 -32 0
251 -3 -33 0
252 -3 -34 0
253 -3 -35 0
254 -3 -36 0
246 -5 -46 0
247 -5 -47 0
248 -5 -48 0
249 -5 -49 0
250 -5 -50 0
251 -5 -51 0
252 -5 -52 0
253 -5 -53 0
254 -5 -54 0
246 -7 -64 0
247 -7 -65 0
248 -7 -66 0
249 -7 -67 0
250 -7 -68 0
251 -7 -69 0
252 -7 -70 0
253 -7 -71 0
254 -7 -72 0
246 -9 -82 0
247 -9 -83 0
248 -9 -84 0
249 -9 -85 0
250 -9 -86 0
251 -9 -87 0
252 -9 -88 0
253 -9 -89 0
254 -9 -90 0
255 -2 -19 0
256 -2 -20 0
257 -2 -21 0
258 -2 -22 0
259 -2 -23 0
260 -2 -24 0
261 -2 -25 0
262 -2 -26 0
263 -2 -27 0
255 -4 -37 0
256 -4 -38 0
257 -4 -39 0
258 -4 -40 0
259 -4 -41 0
260 -4 -42 0
261 -4 -43 0
262 -4 -44 0
263 -4 -45 0
255 -6 -55 0
256 -6 -56 0
257 -6 -57 0
258 -6 -58 0
259 -6 -59 0
260 -6 -60 0
261 -6 -61 0
262 -6 -62 0
263 -6 -63 0
255 -8 -73 0
256 -8 -74 0
257 -8 -75 0
258 -8 -76 0
259 -8 -77 0
260 -8 -78 0
261 -8 -79 0
262 -8 -80 0
263 -8 -81 0
82 64 46 28 10 -246 -9 0
9 64 46 28 10 -246 -7 0
7 46 28 10 -246 -5 0
5 28 10 -246 -3 0
3 10 -246 -1 0
1 -246 0
83 65 47 29 11 -247 -9 0
9 65 47 29 11 -247 -7 0
7 47 29 11 -247 -5 0
5 29 11 -247 -3 0
3 11 -247 -1 0
1 -247 0
84 66 48 30 12 -248 -9 0
9 66 48 30 12 -248 -7 0
7 48 30 12 -248 -5 0
5 30 12 -248 -3 0
3 12 -248 -1 0
1 -248 0
85 67 49 31 13 -249 -9 0
9 67 49 31 13 -249 -7 0
7 49 31 13 -249 -5 0
5 31 13 -249 -3 0
3 13 -249 -1 0
1 -249 0
86 68 50 32 14 -250 -9 0
9 68 50 32 14 -250 -7 0
7 50 32 14 -250 -5 0
5 32 14 -250 -3 0
3 14 -250 -1 0
1 -250 0
87 69 51 33 15 -251 -9 0
9 69 51 33 15 -251 -7 0
7 51 33 15 -251 -5 0
5 33 15 -251 -3 0
3 15 -251 -1 0
1 -251 0
88 70 52 34 16 -252 -9 0
9 70 52 34 16 -252 -7 0
7 52 34 16 -252 -5 0
5 34 16 -252 -3 0
3 16 -252 -1 0
1 -252 0
89 71 53 35 17 -253 -9 0
9 71 53 35 17 -253 -7 0
7 53 35 17 -253 -5 0
5 35 17 -253 -3 0
3 17 -253 -1 0
1 -253 0
90 72 54 36 18 -254 -9 0
9 72 54 36 18 -254 -7 0
7 54 36 18 -254 -5 0
5 36 18 -254 -3 0
3 18 -254 -1 0
1 -254 0
73 55 37 19 -255 -8 0
8 55 37 19 -255 -6 0
6 37 19 -255 -4 0
4 19 -255 -2 0
2 -255 0
74 56 38 20 -256 -8 0
8 56 38 20 -256 -6 0
6 38 20 -256 -4 0
4 20 -256 -2 0
2 -256 0
75 57 39 21 -257 -8 0
8 57 39 21 -257 -6 0
6 39 21 -257 -4 0
4 21 -257 -2 0
2 -257 0
76 58 40 22 -258 -8 0
8 58 40 22 -258 -6 0
6 40 22 -258 -4 0
4 22 -258 -2 0
2 -258 0
77 59 41 23 -259 -8 0
8 59 41 23 -259 -6 0
6 41 23 -259 -4 0
4 23 -259 -2 0
2 -259 0
78 60 42 24 -260 -8 0
8 60 42 24 -260 -6 0
6 42 24 -260 -4 0
4 24 -260 -2 0
2 -260 0
79 61 43 25 -261 -8 0
8 61 43 25 -261 -6 0
6 43 25 -261 -4 0
4 25 -261 -2 0
2 -261 0
80 62 44 26 -262 -8 0
8 62 44 26 -262 -6 0
6 44 26 -262 -4 0
4 26 -262 -2 0
2 -262 0
81 63 45 27 -263 -8 0
8 63 45 27 -263 -6 0
6 45 27 -263 -4 0
4 27 -263 -2 0
2 -263 0
-19 -3 -28 0
-19 -5 -46 0
-19 -7 -64 0
-19 -9 -82 0
-37 -5 -46 0
-37 -7 -64 0
-37 -9 -82 0
-55 -7 -64 0
-55 -9 -82 0
-73 -9 -82 0
-20 -3 -29 0
-20 -5 -47 0
-20 -7 -65 0
-20 -9 -83 0
-38 -5 -47 0
-38 -7 -65 0
-38 -9 -83 0
-56 -7 -65 0
-56 -9 -83 0
-74 -9 -83 0
-21 -3 -30 0
-21 -5 -48 0
-21 -7 -66 0
-21 -9 -84 0
-39 -5 -48 0
-39 -7 -66 0
-39 -9 -84 0
-57 -7 -66 0
-57 -9 -84 0
-75 -9 -84 0
-22 -3 -31 0
-22 -5 -49 0
-22 -7 -67 0
-22 -9 -85 0
-40 -5 -49 0
-40 -7 -67 0
-40 -9 -85 0
-58 -7 -67 0
-58 -9 -85 0
-76 -9 -85 0
-23 -3 -32 0
-23 -5 -50 0
-23 -7 -68 0
-23 -9 -86 0
-41 -5 -50 0
-41 -7 -68 0
-41 -9 -86 0
-59 -7 -68 0
-59 -9 -86 0
-77 -9 -86 0
-24 -3 -33 0
-24 -5 -51 0
-24 -7 -69 0
-24 -9 -87 0
-42 -5 -51 0
-42 -7 -69 0
-42 -9 -87 0
-60 -7 -69 0
-60 -9 -87 0
-78 -9 -87 0
-25 -3 -34 0
-25 -5 -52 0
-25 -7 -70 0
-25 -9 -88 0
-43 -5 -52 0
-43 -7 -70 0
-43 -9 -88 0
-61 -7 -70 0
-61 -9 -88 0
-79 -9 -88 0
-26 -3 -35 0
-26 -5 -53 0
-26 -7 -71 0
-26 -9 -89 0
-44 -5 -53 0
-44 -7 -71 0
-44 -9 -89 0
-62 -7 -71 0
-62 -9 -89 0
-80 -9 -89 0
-27 -3 -36 0
-27 -5 -54 0
-27 -7 -72 0
-27 -9 -90 0
-45 -5 -54 0
-45 -7 -72 0
-45 -9 -90 0
-63 -7 -72 0
-63 -9 -90 0
-81 -9 -90 0
255 -264 0
246 -264 0
256 -265 0
247 -265 0
257 -266 0
248 -266 0
258 -267 0
249 -267 0
259 -268 0
250 -268 0
260 -269 0
251 -269 0
261 -270 0
252 -270 0
262 -271 0
253 -271 0
263 -272 0
254 -272 0
246 -273 0
249 -273 0
252 -273 0
246 -273 0
273 -246 -249 -252 0
246 -274 0
247 -274 0
248 -274 0
246 -274 0
274 -246 -247 -248 0
247 -275 0
250 -275 0
253 -275 0
247 -275 0
275 -247 -250 -253 0
247 -276 0
248 -276 0
246 -276 0
247 -276 0
276 -247 -248 -246 0
248 -277 0
251 -277 0
254 -277 0
248 -277 0
277 -248 -251 -254 0
248 -278 0
246 -278 0
247 -278 0
248 -278 0
278 -248 -246 -247 0
249 -279 0
252 -279 0
246 -279 0
249 -279 0
279 -249 -252 -246 0
249 -280 0
250 -280 0
251 -280 0
249 -280 0
280 -249 -250 -251 0
250 -281 0
253 -281 0
247 -281 0
250 -281 0
281 -250 -253 -247 0
250 -282 0
251 -282 0
249 -282 0
250 -282 0
282 -250 -251 -249 0
251 -283 0
254 -283 0
248 -283 0
251 -283 0
283 -251 -254 -248 0
251 -284 0
249 -284 0
250 -284 0
251 -284 0
284 -251 -249 -250 0
252 -285 0
246 -285 0
249 -285 0
252 -285 0
285 -252 -246 -249 0
252 -286 0
253 -286 0
254 -286 0
252 -286 0
286 -252 -253 -254 0
253 -287 0
247 -287 0
250 -287 0
253 -287 0
287 -253 -247 -250 0
253 -288 0
254 -288 0
252 -288 0
253 -288 0
288 -253 -254 -252 0
254 -289 0
248 -289 0
251 -289 0
254 -289 0
289 -254 -248 -251 0
254 -290 0
252 -290 0
253 -290 0
254 -290 0
290 -254 -252 -253 0
273 274 275 276 277 278 279 280 281 282 283 284 285 286 287 288 289 290 -291 0
292 -293 0
293 -255 -258 -261 0
292 -294 0
294 -255 -256 -257 0
292 -295 0
295 -256 -259 -262 0
292 -296 0
296 -256 -257 -255 0
292 -297 0
297 -257 -260 -263 0
292 -298 0
298 -257 -255 -256 0
292 -299 0
299 -258 -261 -255 0
292 -300 0
300 -258 -259 -260 0
292 -301 0
301 -259 -262 -256 0
292 -302 0
302 -259 -260 -258 0
292 -303 0
303 -260 -263 -257 0
292 -304 0
304 -260 -258 -259 0
292 -305 0
305 -261 -255 -258 0
292 -306 0
306 -261 -262 -263 0
292 -307 0
307 -262 -256 -259 0
292 -308 0
308 -262 -263 -261 0
292 -309 0
309 -263 -257 -260 0
292 -310 0
310 -263 -261 -262 0
-194 -109 0
-211 -109 0
-228 -109 0
-245 -109 0
-264 -109 0
-265 -109 0
-266 -109 0
-267 -109 0
-268 -109 0
-269 -109 0
-270 -109 0
-271 -109 0
-272 -109 0
109 194 211 228 245 264 265 266 267 268 269 270 271 272 0
291 -109 0
-292 -109 0
